%%% static parameters %%%
timespan = 1;
Fact = [2];
Distr1 = [5];
Distr2 = [10];
Clients_N = [100];
Demand_W = [15];
Lt0 = [4];
Lt1 = [4];
SS_ = [0.85];
DS_D = [8];
K = [200];
MA = [500];
%%% dynamic parameters %%%
lost_ratio_sales_ret_th = 0.3438150722108584;
lost_ratio_sales_ret_w = 33;
lost_ratio_sales_dis_th = 0.33489046362074304;
lost_ratio_sales_dis_w = 61;
lost_ratio_sales_fac_th = 0.5882185445371466;
lost_ratio_sales_fac_w = 74;
stock_customer_MA_mean_relative_th = 0.6287549951790297;
stock_customer_MA_mean_relative_w = 92;
stock_distributor_MA_mean_relative_th = 0.26807145705109514;
stock_distributor_MA_mean_relative_w = 99;
stock_retailer_MA_mean_relative_th = 0.8583841000242056;
stock_retailer_MA_mean_relative_w = 65;
stock_factory_MA_mean_relative_th = 0.6511521158223493;
stock_factory_MA_mean_relative_w = 10;
